Site = { 1,2,3,4,5,6, 7 };
hotel = 6;
distance = [| 0,   3, 13,  9,  9,  4,  4
            | 3,   0, 12,  8,  6,  7,  5
            | 13, 12, 0,   4, 10,  9,  8
            | 9,   8, 4,   0, 14,  5,  10
            | 9,   6, 10, 14,  0, 13,  11
            | 4,   7,  9,  5, 13,  0,  4
            | 4,   5,  8, 10, 11,  4,  0|];

durationOfVisit = [20, 4, 20, 15, 12, 0, 5];
siteOpens = [ 4, 4, 10, 10, 40, 0, 8];
siteCloses = [ 70, 70, 70, 70, 70, 200, 70 ];

Passenger = { 1,2,3,4 };
site_score = [| 100, 50, 75, 0, 0, 0, 20
              | 28, 0, 42, 0, 0, 0, 12
              | 0, 0, 0, 12, 13, 0, 0
              | 0,0,0,4,5,0, 15
              |];
preferred_n_sites = [ 2, 2, 2, 3 ];
preferred_travel_time = [ 30, 10, 60, 60 ];
preference_weights = [| 100,1,1
                      | 100,1,1
                      | 100,1,1
                      | 100,1,1 |];
